; benchmark generated from python API
(set-info :status unknown)
(declare-datatypes ((IntState 0)) (((Mk1 (val1 Int)) (Mk2 (val2 Int)))))
 (declare-fun c_main_~k~6 () Int)
(declare-fun c_main_~j~6 () Int)
(declare-fun c_main_~i~6 () Int)
(assert
 (let (($x40 (exists ((main_~i~6_st IntState) (val!168 Int) )(let ((?x56 (val2 main_~i~6_st)))
 (let (($x41 (<= ?x56 2)))
 (let (($x138 (and (<= c_main_~j~6 (+ (* 2 ?x56) 1)) $x41 (<= ?x56 c_main_~k~6))))
 (let (($x52 (not (= main_~i~6_st (Mk1 val!168)))))
 (and $x52 $x138))))))
 ))
 (let (($x47 (<= c_main_~j~6 (+ (* 2 c_main_~i~6) 1))))
 (let (($x174 (<= c_main_~i~6 2)))
 (let (($x37 (exists ((main_~i~6 Int) )(let (($x148 (<= main_~i~6 2)))
 (and (<= c_main_~j~6 (+ (* 2 main_~i~6) 1)) $x148 (<= main_~i~6 c_main_~k~6))))
 ))
 (let ((?x66 (* 2 c_main_~i~6)))
 (let (($x67 (<= c_main_~j~6 ?x66)))
 (and (and $x174 $x47 $x67 $x37) (not (and $x174 $x47 $x40))))))))))
(check-sat)
